\ Model vert
\ LP format - for model browsing. Use MPS format to capture full model detail.
Minimize
  69.68097220491813 S_coef + 0.2160661217258176 Constant + [ 11236 S_coef ^2
   ] / 2 
Subject To
Bounds
 -1000 <= S_coef <= 0
 Constant = 1
End
